NAME : LPS-n30-m341
COMMENT : (Lartu-Peter-Santi Plot, instance 11141 out of 39200. 30 customers.)
TYPE : CVRP
DIMENSION : 30
EDGE_WEIGHT_TYPE : EUC_2D
CAPACITY : 141
NODE_COORD_SECTION
 1 39 13
 2 2 62
 3 13 17
 4 75 39
 5 53 86
 6 76 89
 7 11 84
 8 8 69
 9 50 18
 10 14 39
 11 72 45
 12 50 65
 13 39 63
 14 91 42
 15 45 58
 16 12 83
 17 47 61
 18 53 88
 19 6 28
 20 93 77
 21 72 61
 22 59 65
 23 76 99
 24 66 8
 25 58 2
 26 98 36
 27 4 55
 28 8 0
 29 52 22
 30 92 8
DEMAND_SECTION
1 0
2 68
3 56
4 39
5 59
6 47
7 80
8 34
9 66
10 103
11 140
12 36
13 50
14 92
15 76
16 49
17 100
18 22
19 54
20 72
21 98
22 49
23 120
24 4
25 69
26 128
27 91
28 107
29 113
30 83
DEPOT_SECTION
 1
 -1
EOF
